50, 675
21, 16
45, 40
39, 34
47, 42
29, 24
51, 46
11, 6
37, 32
33, 28
55, 50
41, 36
25, 20
43, 38
21, 16
47, 42
23, 18
11, 6
21, 16
11, 6
9, 4
51, 46
17, 12
15, 10
53, 48
11, 6
33, 28
27, 22
13, 8
15, 10
29, 24
55, 50
29, 24
49, 44
31, 26
33, 28
29, 24
41, 36
45, 40
29, 24
31, 26
7, 2
43, 38
33, 28
35, 30
49, 44
9, 4
51, 46
53, 48
15, 10
47, 42
